g3 0 1 0	# problem steenbrc
 540 126 1 0 126	# vars, constraints, objectives, ranges, eqns
 0 1	# nonlinear constraints, objectives
 0 0	# network constraints: nonlinear, linear
 0 108 0	# nonlinear vars in constraints, objectives, both
 0 0 0 1	# linear network variables; functions; arith, flags
 0 0 0 0 0	# discrete variables: binary, integer, nonlinear (b,c,o)
 1008 108	# nonzeros in Jacobian, gradients
 0 0	# max name lengths: constraints, variables
 0 0 0 0 0	# common exprs: b,c,o,c1,o1
b
2 0.01
2 0.01
2 0
2 0
2 0
2 0
2 0.01
2 0.01
2 0
2 0
2 0
2 0
2 0.01
2 0.01
2 0
2 0
2 0
2 0
2 0.01
2 0.01
2 0
2 0
2 0
2 0
2 0.01
2 0.01
2 0
2 0
2 0
2 0
2 0.01
2 0.01
2 0
2 0
2 0
2 0
2 0.01
2 0.01
2 0
2 0
2 0
2 0
2 0.01
2 0.01
2 0
2 0
2 0
2 0
2 0.01
2 0.01
2 0
2 0
2 0
2 0
2 0.01
2 0.01
2 0
2 0
2 0
2 0
2 0.01
2 0.01
2 0
2 0
2 0
2 0
2 0.01
2 0.01
2 0
2 0
2 0
2 0
2 0.01
2 0.01
2 0
2 0
2 0
2 0
2 0.01
2 0.01
2 0
2 0
2 0
2 0
2 0.01
2 0.01
2 0
2 0
2 0
2 0
2 0.01
2 0.01
2 0
2 0
2 0
2 0
2 0.01
2 0.01
2 0
2 0
2 0
2 0
2 0.01
2 0.01
2 0
2 0
2 0
2 0
2 0
2 0
2 0
2 0
2 0
2 0
2 0
2 0
2 0
2 0
2 0
2 0
2 0
2 0
2 0
2 0
2 0
2 0
2 0
2 0
2 0
2 0
2 0
2 0
2 0
2 0
2 0
2 0
2 0
2 0
2 0
2 0
2 0
2 0
2 0
2 0
2 0
2 0
2 0
2 0
2 0
2 0
2 0
2 0
2 0
2 0
2 0
2 0
2 0
2 0
2 0
2 0
2 0
2 0
2 0
2 0
2 0
2 0
2 0
2 0
2 0
2 0
2 0
2 0
2 0
2 0
2 0
2 0
2 0
2 0
2 0
2 0
2 0
2 0
2 0
2 0
2 0
2 0
2 0
2 0
2 0
2 0
2 0
2 0
2 0
2 0
2 0
2 0
2 0
2 0
2 0
2 0
2 0
2 0
2 0
2 0
2 0
2 0
2 0
2 0
2 0
2 0
2 0
2 0
2 0
2 0
2 0
2 0
2 0
2 0
2 0
2 0
2 0
2 0
2 0
2 0
2 0
2 0
2 0
2 0
2 0
2 0
2 0
2 0
2 0
2 0
2 0
2 0
2 0
2 0
2 0
2 0
2 0
2 0
2 0
2 0
2 0
2 0
2 0
2 0
2 0
2 0
2 0
2 0
2 0
2 0
2 0
2 0
2 0
2 0
2 0
2 0
2 0
2 0
2 0
2 0
2 0
2 0
2 0
2 0
2 0
2 0
2 0
2 0
2 0
2 0
2 0
2 0
2 0
2 0
2 0
2 0
2 0
2 0
2 0
2 0
2 0
2 0
2 0
2 0
2 0
2 0
2 0
2 0
2 0
2 0
2 0
2 0
2 0
2 0
2 0
2 0
2 0
2 0
2 0
2 0
2 0
2 0
2 0
2 0
2 0
2 0
2 0
2 0
2 0
2 0
2 0
2 0
2 0
2 0
2 0
2 0
2 0
2 0
2 0
2 0
2 0
2 0
2 0
2 0
2 0
2 0
2 0
2 0
2 0
2 0
2 0
2 0
2 0
2 0
2 0
2 0
2 0
2 0
2 0
2 0
2 0
2 0
2 0
2 0
2 0
2 0
2 0
2 0
2 0
2 0
2 0
2 0
2 0
2 0
2 0
2 0
2 0
2 0
2 0
2 0
2 0
2 0
2 0
2 0
2 0
2 0
2 0
2 0
2 0
2 0
2 0
2 0
2 0
2 0
2 0
2 0
2 0
2 0
2 0
2 0
2 0
2 0
2 0
2 0
2 0
2 0
2 0
2 0
2 0
2 0
2 0
2 0
2 0
2 0
2 0
2 0
2 0
2 0
2 0
2 0
2 0
2 0
2 0
2 0
2 0
2 0
2 0
2 0
2 0
2 0
2 0
2 0
2 0
2 0
2 0
2 0
2 0
2 0
2 0
2 0
2 0
2 0
2 0
2 0
2 0
2 0
2 0
2 0
2 0
2 0
2 0
2 0
2 0
2 0
2 0
2 0
2 0
2 0
2 0
2 0
2 0
2 0
2 0
2 0
2 0
2 0
2 0
2 0
2 0
2 0
2 0
2 0
2 0
2 0
2 0
2 0
2 0
2 0
2 0
2 0
2 0
2 0
2 0
2 0
2 0
2 0
2 0
2 0
2 0
2 0
2 0
2 0
2 0
2 0
2 0
2 0
2 0
2 0
2 0
2 0
2 0
2 0
2 0
2 0
2 0
2 0
2 0
2 0
2 0
2 0
2 0
2 0
2 0
2 0
2 0
2 0
2 0
2 0
2 0
2 0
2 0
2 0
2 0
2 0
2 0
2 0
2 0
2 0
2 0
2 0
2 0
2 0
2 0
2 0
2 0
2 0
2 0
2 0
2 0
2 0
2 0
2 0
2 0
2 0
2 0
2 0
2 0
2 0
2 0
2 0
2 0
2 0
2 0
2 0
2 0
2 0
x540
0 0.1
1 0.1
2 0.1
3 0.1
4 0.1
5 0.1
6 0.1
7 0.1
8 0.1
9 0.1
10 0.1
11 0.1
12 0.1
13 0.1
14 0.1
15 0.1
16 0.1
17 0.1
18 0.1
19 0.1
20 0.1
21 0.1
22 0.1
23 0.1
24 0.1
25 0.1
26 0.1
27 0.1
28 0.1
29 0.1
30 0.1
31 0.1
32 0.1
33 0.1
34 0.1
35 0.1
36 0.1
37 0.1
38 0.1
39 0.1
40 0.1
41 0.1
42 0.1
43 0.1
44 0.1
45 0.1
46 0.1
47 0.1
48 0.1
49 0.1
50 0.1
51 0.1
52 0.1
53 0.1
54 0.1
55 0.1
56 0.1
57 0.1
58 0.1
59 0.1
60 0.1
61 0.1
62 0.1
63 0.1
64 0.1
65 0.1
66 0.1
67 0.1
68 0.1
69 0.1
70 0.1
71 0.1
72 0.1
73 0.1
74 0.1
75 0.1
76 0.1
77 0.1
78 0.1
79 0.1
80 0.1
81 0.1
82 0.1
83 0.1
84 0.1
85 0.1
86 0.1
87 0.1
88 0.1
89 0.1
90 0.1
91 0.1
92 0.1
93 0.1
94 0.1
95 0.1
96 0.1
97 0.1
98 0.1
99 0.1
100 0.1
101 0.1
102 0.1
103 0.1
104 0.1
105 0.1
106 0.1
107 0.1
108 0.1
109 0.1
110 0.1
111 0.1
112 0.1
113 0.1
114 0.1
115 0.1
116 0.1
117 0.1
118 0.1
119 0.1
120 0.1
121 0.1
122 0.1
123 0.1
124 0.1
125 0.1
126 0.1
127 0.1
128 0.1
129 0.1
130 0.1
131 0.1
132 0.1
133 0.1
134 0.1
135 0.1
136 0.1
137 0.1
138 0.1
139 0.1
140 0.1
141 0.1
142 0.1
143 0.1
144 0.1
145 0.1
146 0.1
147 0.1
148 0.1
149 0.1
150 0.1
151 0.1
152 0.1
153 0.1
154 0.1
155 0.1
156 0.1
157 0.1
158 0.1
159 0.1
160 0.1
161 0.1
162 0.1
163 0.1
164 0.1
165 0.1
166 0.1
167 0.1
168 0.1
169 0.1
170 0.1
171 0.1
172 0.1
173 0.1
174 0.1
175 0.1
176 0.1
177 0.1
178 0.1
179 0.1
180 0.1
181 0.1
182 0.1
183 0.1
184 0.1
185 0.1
186 0.1
187 0.1
188 0.1
189 0.1
190 0.1
191 0.1
192 0.1
193 0.1
194 0.1
195 0.1
196 0.1
197 0.1
198 0.1
199 0.1
200 0.1
201 0.1
202 0.1
203 0.1
204 0.1
205 0.1
206 0.1
207 0.1
208 0.1
209 0.1
210 0.1
211 0.1
212 0.1
213 0.1
214 0.1
215 0.1
216 0.1
217 0.1
218 0.1
219 0.1
220 0.1
221 0.1
222 0.1
223 0.1
224 0.1
225 0.1
226 0.1
227 0.1
228 0.1
229 0.1
230 0.1
231 0.1
232 0.1
233 0.1
234 0.1
235 0.1
236 0.1
237 0.1
238 0.1
239 0.1
240 0.1
241 0.1
242 0.1
243 0.1
244 0.1
245 0.1
246 0.1
247 0.1
248 0.1
249 0.1
250 0.1
251 0.1
252 0.1
253 0.1
254 0.1
255 0.1
256 0.1
257 0.1
258 0.1
259 0.1
260 0.1
261 0.1
262 0.1
263 0.1
264 0.1
265 0.1
266 0.1
267 0.1
268 0.1
269 0.1
270 0.1
271 0.1
272 0.1
273 0.1
274 0.1
275 0.1
276 0.1
277 0.1
278 0.1
279 0.1
280 0.1
281 0.1
282 0.1
283 0.1
284 0.1
285 0.1
286 0.1
287 0.1
288 0.1
289 0.1
290 0.1
291 0.1
292 0.1
293 0.1
294 0.1
295 0.1
296 0.1
297 0.1
298 0.1
299 0.1
300 0.1
301 0.1
302 0.1
303 0.1
304 0.1
305 0.1
306 0.1
307 0.1
308 0.1
309 0.1
310 0.1
311 0.1
312 0.1
313 0.1
314 0.1
315 0.1
316 0.1
317 0.1
318 0.1
319 0.1
320 0.1
321 0.1
322 0.1
323 0.1
324 0.1
325 0.1
326 0.1
327 0.1
328 0.1
329 0.1
330 0.1
331 0.1
332 0.1
333 0.1
334 0.1
335 0.1
336 0.1
337 0.1
338 0.1
339 0.1
340 0.1
341 0.1
342 0.1
343 0.1
344 0.1
345 0.1
346 0.1
347 0.1
348 0.1
349 0.1
350 0.1
351 0.1
352 0.1
353 0.1
354 0.1
355 0.1
356 0.1
357 0.1
358 0.1
359 0.1
360 0.1
361 0.1
362 0.1
363 0.1
364 0.1
365 0.1
366 0.1
367 0.1
368 0.1
369 0.1
370 0.1
371 0.1
372 0.1
373 0.1
374 0.1
375 0.1
376 0.1
377 0.1
378 0.1
379 0.1
380 0.1
381 0.1
382 0.1
383 0.1
384 0.1
385 0.1
386 0.1
387 0.1
388 0.1
389 0.1
390 0.1
391 0.1
392 0.1
393 0.1
394 0.1
395 0.1
396 0.1
397 0.1
398 0.1
399 0.1
400 0.1
401 0.1
402 0.1
403 0.1
404 0.1
405 0.1
406 0.1
407 0.1
408 0.1
409 0.1
410 0.1
411 0.1
412 0.1
413 0.1
414 0.1
415 0.1
416 0.1
417 0.1
418 0.1
419 0.1
420 0.1
421 0.1
422 0.1
423 0.1
424 0.1
425 0.1
426 0.1
427 0.1
428 0.1
429 0.1
430 0.1
431 0.1
432 0.1
433 0.1
434 0.1
435 0.1
436 0.1
437 0.1
438 0.1
439 0.1
440 0.1
441 0.1
442 0.1
443 0.1
444 0.1
445 0.1
446 0.1
447 0.1
448 0.1
449 0.1
450 0.1
451 0.1
452 0.1
453 0.1
454 0.1
455 0.1
456 0.1
457 0.1
458 0.1
459 0.1
460 0.1
461 0.1
462 0.1
463 0.1
464 0.1
465 0.1
466 0.1
467 0.1
468 0.1
469 0.1
470 0.1
471 0.1
472 0.1
473 0.1
474 0.1
475 0.1
476 0.1
477 0.1
478 0.1
479 0.1
480 0.1
481 0.1
482 0.1
483 0.1
484 0.1
485 0.1
486 0.1
487 0.1
488 0.1
489 0.1
490 0.1
491 0.1
492 0.1
493 0.1
494 0.1
495 0.1
496 0.1
497 0.1
498 0.1
499 0.1
500 0.1
501 0.1
502 0.1
503 0.1
504 0.1
505 0.1
506 0.1
507 0.1
508 0.1
509 0.1
510 0.1
511 0.1
512 0.1
513 0.1
514 0.1
515 0.1
516 0.1
517 0.1
518 0.1
519 0.1
520 0.1
521 0.1
522 0.1
523 0.1
524 0.1
525 0.1
526 0.1
527 0.1
528 0.1
529 0.1
530 0.1
531 0.1
532 0.1
533 0.1
534 0.1
535 0.1
536 0.1
537 0.1
538 0.1
539 0.1
r
4 0
4 -2000
4 2000
4 0
4 0
4 0
4 0
4 0
4 0
4 0
4 -2000
4 0
4 2000
4 0
4 0
4 0
4 0
4 0
4 0
4 -1000
4 0
4 0
4 1000
4 0
4 0
4 0
4 0
4 0
4 0
4 -1000
4 1000
4 0
4 0
4 0
4 0
4 0
4 0
4 0
4 -2000
4 0
4 2000
4 0
4 0
4 0
4 0
4 0
4 0
4 0
4 -1000
4 1000
4 0
4 0
4 0
4 0
4 0
4 200
4 -200
4 0
4 0
4 0
4 0
4 0
4 0
4 0
4 200
4 0
4 -200
4 0
4 0
4 0
4 0
4 0
4 0
4 100
4 0
4 0
4 -100
4 0
4 0
4 0
4 0
4 0
4 0
4 100
4 -100
4 0
4 0
4 0
4 0
4 0
4 0
4 0
4 200
4 0
4 -200
4 0
4 0
4 0
4 0
4 0
4 0
4 0
4 100
4 -100
4 0
4 0
4 0
4 0
4 -10000
4 0
4 0
4 0
4 0
4 10000
4 0
4 0
4 0
4 1000
4 0
4 0
4 0
4 0
4 -1000
4 0
4 0
4 0
C0
n0
C1
n0
C2
n0
C3
n0
C4
n0
C5
n0
C6
n0
C7
n0
C8
n0
C9
n0
C10
n0
C11
n0
C12
n0
C13
n0
C14
n0
C15
n0
C16
n0
C17
n0
C18
n0
C19
n0
C20
n0
C21
n0
C22
n0
C23
n0
C24
n0
C25
n0
C26
n0
C27
n0
C28
n0
C29
n0
C30
n0
C31
n0
C32
n0
C33
n0
C34
n0
C35
n0
C36
n0
C37
n0
C38
n0
C39
n0
C40
n0
C41
n0
C42
n0
C43
n0
C44
n0
C45
n0
C46
n0
C47
n0
C48
n0
C49
n0
C50
n0
C51
n0
C52
n0
C53
n0
C54
n0
C55
n0
C56
n0
C57
n0
C58
n0
C59
n0
C60
n0
C61
n0
C62
n0
C63
n0
C64
n0
C65
n0
C66
n0
C67
n0
C68
n0
C69
n0
C70
n0
C71
n0
C72
n0
C73
n0
C74
n0
C75
n0
C76
n0
C77
n0
C78
n0
C79
n0
C80
n0
C81
n0
C82
n0
C83
n0
C84
n0
C85
n0
C86
n0
C87
n0
C88
n0
C89
n0
C90
n0
C91
n0
C92
n0
C93
n0
C94
n0
C95
n0
C96
n0
C97
n0
C98
n0
C99
n0
C100
n0
C101
n0
C102
n0
C103
n0
C104
n0
C105
n0
C106
n0
C107
n0
C108
n0
C109
n0
C110
n0
C111
n0
C112
n0
C113
n0
C114
n0
C115
n0
C116
n0
C117
n0
C118
n0
C119
n0
C120
n0
C121
n0
C122
n0
C123
n0
C124
n0
C125
n0
O0 0
o54
72
o3
o2
n0.35
o0
o2
o2
o0
v2
v4
o0
v2
v4
v2
v4
o2
v0
v0
o3
o2
n0.35
o0
o2
o2
o0
v3
v5
o0
v3
v5
v3
v5
o2
v1
v1
o2
n0.35
o39
v0
o2
n0.35
o39
v1
o3
o2
n0.4
o0
o2
o2
o0
v8
v10
o0
v8
v10
v8
v10
o2
v6
v6
o3
o2
n0.4
o0
o2
o2
o0
v9
v11
o0
v9
v11
v9
v11
o2
v7
v7
o2
n0.4
o39
v6
o2
n0.4
o39
v7
o3
o2
n0.3
o0
o2
o2
o0
v14
v16
o0
v14
v16
v14
v16
o2
v12
v12
o3
o2
n0.3
o0
o2
o2
o0
v15
v17
o0
v15
v17
v15
v17
o2
v13
v13
o2
n0.3
o39
v12
o2
n0.3
o39
v13
o3
o0
o2
o2
o0
v20
v22
o0
v20
v22
v20
v22
o2
v18
v18
o3
o0
o2
o2
o0
v21
v23
o0
v21
v23
v21
v23
o2
v19
v19
o39
v18
o39
v19
o3
o2
n0.15
o0
o2
o2
o0
v26
v28
o0
v26
v28
v26
v28
o2
v24
v24
o3
o2
n0.15
o0
o2
o2
o0
v27
v29
o0
v27
v29
v27
v29
o2
v25
v25
o2
n0.15
o39
v24
o2
n0.15
o39
v25
o3
o2
n0.55
o0
o2
o2
o0
v32
v34
o0
v32
v34
v32
v34
o2
v30
v30
o3
o2
n0.55
o0
o2
o2
o0
v33
v35
o0
v33
v35
v33
v35
o2
v31
v31
o2
n0.55
o39
v30
o2
n0.55
o39
v31
o3
o0
o2
o2
o0
v38
v40
o0
v38
v40
v38
v40
o2
v36
v36
o3
o0
o2
o2
o0
v39
v41
o0
v39
v41
v39
v41
o2
v37
v37
o39
v36
o39
v37
o3
o2
n0.25
o0
o2
o2
o0
v44
v46
o0
v44
v46
v44
v46
o2
v42
v42
o3
o2
n0.25
o0
o2
o2
o0
v45
v47
o0
v45
v47
v45
v47
o2
v43
v43
o2
n0.25
o39
v42
o2
n0.25
o39
v43
o3
o2
n0.6
o0
o2
o2
o0
v50
v52
o0
v50
v52
v50
v52
o2
v48
v48
o3
o2
n0.6
o0
o2
o2
o0
v51
v53
o0
v51
v53
v51
v53
o2
v49
v49
o2
n0.6
o39
v48
o2
n0.6
o39
v49
o3
o2
n0.35
o0
o2
o2
o0
v56
v58
o0
v56
v58
v56
v58
o2
v54
v54
o3
o2
n0.35
o0
o2
o2
o0
v57
v59
o0
v57
v59
v57
v59
o2
v55
v55
o2
n0.35
o39
v54
o2
n0.35
o39
v55
o3
o2
n0.55
o0
o2
o2
o0
v62
v64
o0
v62
v64
v62
v64
o2
v60
v60
o3
o2
n0.55
o0
o2
o2
o0
v63
v65
o0
v63
v65
v63
v65
o2
v61
v61
o2
n0.55
o39
v60
o2
n0.55
o39
v61
o3
o2
n0.15
o0
o2
o2
o0
v68
v70
o0
v68
v70
v68
v70
o2
v66
v66
o3
o2
n0.15
o0
o2
o2
o0
v69
v71
o0
v69
v71
v69
v71
o2
v67
v67
o2
n0.15
o39
v66
o2
n0.15
o39
v67
o3
o2
n0.4
o0
o2
o2
o0
v74
v76
o0
v74
v76
v74
v76
o2
v72
v72
o3
o2
n0.4
o0
o2
o2
o0
v75
v77
o0
v75
v77
v75
v77
o2
v73
v73
o2
n0.4
o39
v72
o2
n0.4
o39
v73
o3
o2
n0.6
o0
o2
o2
o0
v80
v82
o0
v80
v82
v80
v82
o2
v78
v78
o3
o2
n0.6
o0
o2
o2
o0
v81
v83
o0
v81
v83
v81
v83
o2
v79
v79
o2
n0.6
o39
v78
o2
n0.6
o39
v79
o3
o2
n0.25
o0
o2
o2
o0
v86
v88
o0
v86
v88
v86
v88
o2
v84
v84
o3
o2
n0.25
o0
o2
o2
o0
v87
v89
o0
v87
v89
v87
v89
o2
v85
v85
o2
n0.25
o39
v84
o2
n0.25
o39
v85
o3
o2
n0.3
o0
o2
o2
o0
v92
v94
o0
v92
v94
v92
v94
o2
v90
v90
o3
o2
n0.3
o0
o2
o2
o0
v93
v95
o0
v93
v95
v93
v95
o2
v91
v91
o2
n0.3
o39
v90
o2
n0.3
o39
v91
o3
o2
n0.5
o0
o2
o2
o0
v98
v100
o0
v98
v100
v98
v100
o2
v96
v96
o3
o2
n0.5
o0
o2
o2
o0
v99
v101
o0
v99
v101
v99
v101
o2
v97
v97
o2
n0.5
o39
v96
o2
n0.5
o39
v97
o3
o2
n0.5
o0
o2
o2
o0
v104
v106
o0
v104
v106
v104
v106
o2
v102
v102
o3
o2
n0.5
o0
o2
o2
o0
v105
v107
o0
v105
v107
v105
v107
o2
v103
v103
o2
n0.5
o39
v102
o2
n0.5
o39
v103
k539
0
0
2
4
6
8
8
8
10
12
14
16
16
16
18
20
22
24
24
24
26
28
30
32
32
32
34
36
38
40
40
40
42
44
46
48
48
48
50
52
54
56
56
56
58
60
62
64
64
64
66
68
70
72
72
72
74
76
78
80
80
80
82
84
86
88
88
88
90
92
94
96
96
96
98
100
102
104
104
104
106
108
110
112
112
112
114
116
118
120
120
120
122
124
126
128
128
128
130
132
134
136
136
136
138
140
142
144
146
148
150
152
154
156
158
160
162
164
166
168
170
172
174
176
178
180
182
184
186
188
190
192
194
196
198
200
202
204
206
208
210
212
214
216
218
220
222
224
226
228
230
232
234
236
238
240
242
244
246
248
250
252
254
256
258
260
262
264
266
268
270
272
274
276
278
280
282
284
286
288
290
292
294
296
298
300
302
304
306
308
310
312
314
316
318
320
322
324
326
328
330
332
334
336
338
340
342
344
346
348
350
352
354
356
358
360
362
364
366
368
370
372
374
376
378
380
382
384
386
388
390
392
394
396
398
400
402
404
406
408
410
412
414
416
418
420
422
424
426
428
430
432
434
436
438
440
442
444
446
448
450
452
454
456
458
460
462
464
466
468
470
472
474
476
478
480
482
484
486
488
490
492
494
496
498
500
502
504
506
508
510
512
514
516
518
520
522
524
526
528
530
532
534
536
538
540
542
544
546
548
550
552
554
556
558
560
562
564
566
568
570
572
574
576
578
580
582
584
586
588
590
592
594
596
598
600
602
604
606
608
610
612
614
616
618
620
622
624
626
628
630
632
634
636
638
640
642
644
646
648
650
652
654
656
658
660
662
664
666
668
670
672
674
676
678
680
682
684
686
688
690
692
694
696
698
700
702
704
706
708
710
712
714
716
718
720
722
724
726
728
730
732
734
736
738
740
742
744
746
748
750
752
754
756
758
760
762
764
766
768
770
772
774
776
778
780
782
784
786
788
790
792
794
796
798
800
802
804
806
808
810
812
814
816
818
820
822
824
826
828
830
832
834
836
838
840
842
844
846
848
850
852
854
856
858
860
862
864
866
868
870
872
874
876
878
880
882
884
886
888
890
892
894
896
898
900
902
904
906
908
910
912
914
916
918
920
922
924
926
928
930
932
934
936
938
940
942
944
946
948
950
952
954
956
958
960
962
964
966
968
970
972
974
976
978
980
982
984
986
988
990
992
994
996
998
1000
1002
1004
1006
J0 6
108 -1
109 1
132 -1
133 1
156 -1
157 1
J1 8
108 1
109 -1
180 -1
181 1
204 -1
205 1
228 -1
229 1
J2 8
132 1
133 -1
252 -1
253 1
276 -1
277 1
300 -1
301 1
J3 8
180 1
181 -1
324 -1
325 1
348 -1
349 1
372 -1
373 1
J4 8
252 1
253 -1
396 -1
397 1
420 -1
421 1
444 -1
445 1
J5 6
324 1
325 -1
396 1
397 -1
468 -1
469 1
J6 8
156 1
157 -1
204 1
205 -1
276 1
277 -1
492 -1
493 1
J7 12
228 1
229 -1
300 1
301 -1
348 1
349 -1
420 1
421 -1
492 1
493 -1
516 -1
517 1
J8 8
372 1
373 -1
444 1
445 -1
468 1
469 -1
516 1
517 -1
J9 6
110 -1
111 1
134 -1
135 1
158 -1
159 1
J10 8
110 1
111 -1
182 -1
183 1
206 -1
207 1
230 -1
231 1
J11 8
134 1
135 -1
254 -1
255 1
278 -1
279 1
302 -1
303 1
J12 8
182 1
183 -1
326 -1
327 1
350 -1
351 1
374 -1
375 1
J13 8
254 1
255 -1
398 -1
399 1
422 -1
423 1
446 -1
447 1
J14 6
326 1
327 -1
398 1
399 -1
470 -1
471 1
J15 8
158 1
159 -1
206 1
207 -1
278 1
279 -1
494 -1
495 1
J16 12
230 1
231 -1
302 1
303 -1
350 1
351 -1
422 1
423 -1
494 1
495 -1
518 -1
519 1
J17 8
374 1
375 -1
446 1
447 -1
470 1
471 -1
518 1
519 -1
J18 6
112 -1
113 1
136 -1
137 1
160 -1
161 1
J19 8
112 1
113 -1
184 -1
185 1
208 -1
209 1
232 -1
233 1
J20 8
136 1
137 -1
256 -1
257 1
280 -1
281 1
304 -1
305 1
J21 8
184 1
185 -1
328 -1
329 1
352 -1
353 1
376 -1
377 1
J22 8
256 1
257 -1
400 -1
401 1
424 -1
425 1
448 -1
449 1
J23 6
328 1
329 -1
400 1
401 -1
472 -1
473 1
J24 8
160 1
161 -1
208 1
209 -1
280 1
281 -1
496 -1
497 1
J25 12
232 1
233 -1
304 1
305 -1
352 1
353 -1
424 1
425 -1
496 1
497 -1
520 -1
521 1
J26 8
376 1
377 -1
448 1
449 -1
472 1
473 -1
520 1
521 -1
J27 6
114 -1
115 1
138 -1
139 1
162 -1
163 1
J28 8
114 1
115 -1
186 -1
187 1
210 -1
211 1
234 -1
235 1
J29 8
138 1
139 -1
258 -1
259 1
282 -1
283 1
306 -1
307 1
J30 8
186 1
187 -1
330 -1
331 1
354 -1
355 1
378 -1
379 1
J31 8
258 1
259 -1
402 -1
403 1
426 -1
427 1
450 -1
451 1
J32 6
330 1
331 -1
402 1
403 -1
474 -1
475 1
J33 8
162 1
163 -1
210 1
211 -1
282 1
283 -1
498 -1
499 1
J34 12
234 1
235 -1
306 1
307 -1
354 1
355 -1
426 1
427 -1
498 1
499 -1
522 -1
523 1
J35 8
378 1
379 -1
450 1
451 -1
474 1
475 -1
522 1
523 -1
J36 6
116 -1
117 1
140 -1
141 1
164 -1
165 1
J37 8
116 1
117 -1
188 -1
189 1
212 -1
213 1
236 -1
237 1
J38 8
140 1
141 -1
260 -1
261 1
284 -1
285 1
308 -1
309 1
J39 8
188 1
189 -1
332 -1
333 1
356 -1
357 1
380 -1
381 1
J40 8
260 1
261 -1
404 -1
405 1
428 -1
429 1
452 -1
453 1
J41 6
332 1
333 -1
404 1
405 -1
476 -1
477 1
J42 8
164 1
165 -1
212 1
213 -1
284 1
285 -1
500 -1
501 1
J43 12
236 1
237 -1
308 1
309 -1
356 1
357 -1
428 1
429 -1
500 1
501 -1
524 -1
525 1
J44 8
380 1
381 -1
452 1
453 -1
476 1
477 -1
524 1
525 -1
J45 6
118 -1
119 1
142 -1
143 1
166 -1
167 1
J46 8
118 1
119 -1
190 -1
191 1
214 -1
215 1
238 -1
239 1
J47 8
142 1
143 -1
262 -1
263 1
286 -1
287 1
310 -1
311 1
J48 8
190 1
191 -1
334 -1
335 1
358 -1
359 1
382 -1
383 1
J49 8
262 1
263 -1
406 -1
407 1
430 -1
431 1
454 -1
455 1
J50 6
334 1
335 -1
406 1
407 -1
478 -1
479 1
J51 8
166 1
167 -1
214 1
215 -1
286 1
287 -1
502 -1
503 1
J52 12
238 1
239 -1
310 1
311 -1
358 1
359 -1
430 1
431 -1
502 1
503 -1
526 -1
527 1
J53 8
382 1
383 -1
454 1
455 -1
478 1
479 -1
526 1
527 -1
J54 6
120 -1
121 1
144 -1
145 1
168 -1
169 1
J55 8
120 1
121 -1
192 -1
193 1
216 -1
217 1
240 -1
241 1
J56 8
144 1
145 -1
264 -1
265 1
288 -1
289 1
312 -1
313 1
J57 8
192 1
193 -1
336 -1
337 1
360 -1
361 1
384 -1
385 1
J58 8
264 1
265 -1
408 -1
409 1
432 -1
433 1
456 -1
457 1
J59 6
336 1
337 -1
408 1
409 -1
480 -1
481 1
J60 8
168 1
169 -1
216 1
217 -1
288 1
289 -1
504 -1
505 1
J61 12
240 1
241 -1
312 1
313 -1
360 1
361 -1
432 1
433 -1
504 1
505 -1
528 -1
529 1
J62 8
384 1
385 -1
456 1
457 -1
480 1
481 -1
528 1
529 -1
J63 6
122 -1
123 1
146 -1
147 1
170 -1
171 1
J64 8
122 1
123 -1
194 -1
195 1
218 -1
219 1
242 -1
243 1
J65 8
146 1
147 -1
266 -1
267 1
290 -1
291 1
314 -1
315 1
J66 8
194 1
195 -1
338 -1
339 1
362 -1
363 1
386 -1
387 1
J67 8
266 1
267 -1
410 -1
411 1
434 -1
435 1
458 -1
459 1
J68 6
338 1
339 -1
410 1
411 -1
482 -1
483 1
J69 8
170 1
171 -1
218 1
219 -1
290 1
291 -1
506 -1
507 1
J70 12
242 1
243 -1
314 1
315 -1
362 1
363 -1
434 1
435 -1
506 1
507 -1
530 -1
531 1
J71 8
386 1
387 -1
458 1
459 -1
482 1
483 -1
530 1
531 -1
J72 6
124 -1
125 1
148 -1
149 1
172 -1
173 1
J73 8
124 1
125 -1
196 -1
197 1
220 -1
221 1
244 -1
245 1
J74 8
148 1
149 -1
268 -1
269 1
292 -1
293 1
316 -1
317 1
J75 8
196 1
197 -1
340 -1
341 1
364 -1
365 1
388 -1
389 1
J76 8
268 1
269 -1
412 -1
413 1
436 -1
437 1
460 -1
461 1
J77 6
340 1
341 -1
412 1
413 -1
484 -1
485 1
J78 8
172 1
173 -1
220 1
221 -1
292 1
293 -1
508 -1
509 1
J79 12
244 1
245 -1
316 1
317 -1
364 1
365 -1
436 1
437 -1
508 1
509 -1
532 -1
533 1
J80 8
388 1
389 -1
460 1
461 -1
484 1
485 -1
532 1
533 -1
J81 6
126 -1
127 1
150 -1
151 1
174 -1
175 1
J82 8
126 1
127 -1
198 -1
199 1
222 -1
223 1
246 -1
247 1
J83 8
150 1
151 -1
270 -1
271 1
294 -1
295 1
318 -1
319 1
J84 8
198 1
199 -1
342 -1
343 1
366 -1
367 1
390 -1
391 1
J85 8
270 1
271 -1
414 -1
415 1
438 -1
439 1
462 -1
463 1
J86 6
342 1
343 -1
414 1
415 -1
486 -1
487 1
J87 8
174 1
175 -1
222 1
223 -1
294 1
295 -1
510 -1
511 1
J88 12
246 1
247 -1
318 1
319 -1
366 1
367 -1
438 1
439 -1
510 1
511 -1
534 -1
535 1
J89 8
390 1
391 -1
462 1
463 -1
486 1
487 -1
534 1
535 -1
J90 6
128 -1
129 1
152 -1
153 1
176 -1
177 1
J91 8
128 1
129 -1
200 -1
201 1
224 -1
225 1
248 -1
249 1
J92 8
152 1
153 -1
272 -1
273 1
296 -1
297 1
320 -1
321 1
J93 8
200 1
201 -1
344 -1
345 1
368 -1
369 1
392 -1
393 1
J94 8
272 1
273 -1
416 -1
417 1
440 -1
441 1
464 -1
465 1
J95 6
344 1
345 -1
416 1
417 -1
488 -1
489 1
J96 8
176 1
177 -1
224 1
225 -1
296 1
297 -1
512 -1
513 1
J97 12
248 1
249 -1
320 1
321 -1
368 1
369 -1
440 1
441 -1
512 1
513 -1
536 -1
537 1
J98 8
392 1
393 -1
464 1
465 -1
488 1
489 -1
536 1
537 -1
J99 6
130 -1
131 1
154 -1
155 1
178 -1
179 1
J100 8
130 1
131 -1
202 -1
203 1
226 -1
227 1
250 -1
251 1
J101 8
154 1
155 -1
274 -1
275 1
298 -1
299 1
322 -1
323 1
J102 8
202 1
203 -1
346 -1
347 1
370 -1
371 1
394 -1
395 1
J103 8
274 1
275 -1
418 -1
419 1
442 -1
443 1
466 -1
467 1
J104 6
346 1
347 -1
418 1
419 -1
490 -1
491 1
J105 8
178 1
179 -1
226 1
227 -1
298 1
299 -1
514 -1
515 1
J106 12
250 1
251 -1
322 1
323 -1
370 1
371 -1
442 1
443 -1
514 1
515 -1
538 -1
539 1
J107 8
394 1
395 -1
466 1
467 -1
490 1
491 -1
538 1
539 -1
J108 6
2 -1
3 1
8 -1
9 1
14 -1
15 1
J109 8
2 1
3 -1
20 -1
21 1
26 -1
27 1
32 -1
33 1
J110 8
8 1
9 -1
38 -1
39 1
44 -1
45 1
50 -1
51 1
J111 8
20 1
21 -1
56 -1
57 1
62 -1
63 1
68 -1
69 1
J112 8
38 1
39 -1
74 -1
75 1
80 -1
81 1
86 -1
87 1
J113 6
56 1
57 -1
74 1
75 -1
92 -1
93 1
J114 8
14 1
15 -1
26 1
27 -1
44 1
45 -1
98 -1
99 1
J115 12
32 1
33 -1
50 1
51 -1
62 1
63 -1
80 1
81 -1
98 1
99 -1
104 -1
105 1
J116 8
68 1
69 -1
86 1
87 -1
92 1
93 -1
104 1
105 -1
J117 6
4 -1
5 1
10 -1
11 1
16 -1
17 1
J118 8
4 1
5 -1
22 -1
23 1
28 -1
29 1
34 -1
35 1
J119 8
10 1
11 -1
40 -1
41 1
46 -1
47 1
52 -1
53 1
J120 8
22 1
23 -1
58 -1
59 1
64 -1
65 1
70 -1
71 1
J121 8
40 1
41 -1
76 -1
77 1
82 -1
83 1
88 -1
89 1
J122 6
58 1
59 -1
76 1
77 -1
94 -1
95 1
J123 8
16 1
17 -1
28 1
29 -1
46 1
47 -1
100 -1
101 1
J124 12
34 1
35 -1
52 1
53 -1
64 1
65 -1
82 1
83 -1
100 1
101 -1
106 -1
107 1
J125 8
70 1
71 -1
88 1
89 -1
94 1
95 -1
106 1
107 -1
G0 108
0 0
1 0
2 0.35
3 0.35
4 0.35
5 0.35
6 0
7 0
8 0.4
9 0.4
10 0.4
11 0.4
12 0
13 0
14 0.3
15 0.3
16 0.3
17 0.3
18 0
19 0
20 1
21 1
22 1
23 1
24 0
25 0
26 0.15
27 0.15
28 0.15
29 0.15
30 0
31 0
32 0.55
33 0.55
34 0.55
35 0.55
36 0
37 0
38 1
39 1
40 1
41 1
42 0
43 0
44 0.25
45 0.25
46 0.25
47 0.25
48 0
49 0
50 0.6
51 0.6
52 0.6
53 0.6
54 0
55 0
56 0.35
57 0.35
58 0.35
59 0.35
60 0
61 0
62 0.55
63 0.55
64 0.55
65 0.55
66 0
67 0
68 0.15
69 0.15
70 0.15
71 0.15
72 0
73 0
74 0.4
75 0.4
76 0.4
77 0.4
78 0
79 0
80 0.6
81 0.6
82 0.6
83 0.6
84 0
85 0
86 0.25
87 0.25
88 0.25
89 0.25
90 0
91 0
92 0.3
93 0.3
94 0.3
95 0.3
96 0
97 0
98 0.5
99 0.5
100 0.5
101 0.5
102 0
103 0
104 0.5
105 0.5
106 0.5
107 0.5
